unsat
(define-fun f ((x (_ BitVec 32))) (_ BitVec 32) (bvor x (bvadd x #b00000000000000000000000000000001)))
0.17user 0.00system 0:00.18elapsed 99%CPU (0avgtext+0avgdata 30236maxresident)k
0inputs+8outputs (0major+2163minor)pagefaults 0swaps
